NAME
ROWS
 N  OBJ
 G  c1
 G  c2
 G  c3
 G  c4
 G  c5
 G  c6
 G  c7
 G  c8
 G  c9
 G  c10
 G  c11
 G  c12
 G  c13
 G  c14
 G  c15
 G  c16
 G  c17
 G  c18
 G  c19
 G  c20
 G  c21
 G  c22
 G  c23
 G  c24
 G  c25
 G  c26
 G  c27
 G  c28
 G  c29
 G  c30
 G  c31
 G  c32
 G  c33
 G  c34
 G  c35
 G  c36
 G  c37
 G  c38
 G  c39
 G  c40
 G  c41
 G  c42
 G  c43
 G  c44
 G  c45
 G  c46
 G  c47
 G  c48
 G  c49
 G  c50
 G  c51
 G  c52
 G  c53
 G  c54
 G  c55
 G  c56
 G  c57
 G  c58
 G  c59
 G  c60
 G  c61
 G  c62
 G  c63
 G  c64
 G  c65
 G  c66
 G  c67
 G  c68
 G  c69
 G  c70
COLUMNS
    MARKER    'MARKER'                 'INTORG'
    x[1]      c1        1
    x[1]      c6        1
    x[1]      c26       1
    x[1]      c29       1
    x[1]      c58       1
    x[1]      c69       1
    x[1]      OBJ       1
    x[2]      c2        1
    x[2]      c5        1
    x[2]      c21       1
    x[2]      c36       1
    x[2]      c38       1
    x[2]      c42       1
    x[2]      c48       1
    x[2]      c58       1
    x[2]      OBJ       1
    x[3]      c3        1
    x[3]      c21       1
    x[3]      c32       1
    x[3]      c41       1
    x[3]      c42       1
    x[3]      c59       1
    x[3]      OBJ       1
    x[4]      c4        1
    x[4]      c13       1
    x[4]      c24       1
    x[4]      c42       1
    x[4]      c44       1
    x[4]      c45       1
    x[4]      c63       1
    x[4]      c67       1
    x[4]      OBJ       1
    x[5]      c2        1
    x[5]      c5        1
    x[5]      c9        1
    x[5]      c15       1
    x[5]      c25       1
    x[5]      c30       1
    x[5]      c41       1
    x[5]      c43       1
    x[5]      c44       1
    x[5]      c52       1
    x[5]      c53       1
    x[5]      c64       1
    x[5]      OBJ       1
    x[6]      c1        1
    x[6]      c6        1
    x[6]      c14       1
    x[6]      c28       1
    x[6]      c30       1
    x[6]      c35       1
    x[6]      c38       1
    x[6]      c55       1
    x[6]      c56       1
    x[6]      c57       1
    x[6]      c68       1
    x[6]      OBJ       1
    x[7]      c7        1
    x[7]      c10       1
    x[7]      c11       1
    x[7]      c14       1
    x[7]      c23       1
    x[7]      c24       1
    x[7]      c33       1
    x[7]      c60       1
    x[7]      c65       1
    x[7]      OBJ       1
    x[8]      c8        1
    x[8]      c28       1
    x[8]      c34       1
    x[8]      c41       1
    x[8]      c59       1
    x[8]      c66       1
    x[8]      c67       1
    x[8]      c70       1
    x[8]      OBJ       1
    x[9]      c5        1
    x[9]      c9        1
    x[9]      c13       1
    x[9]      c24       1
    x[9]      c31       1
    x[9]      c35       1
    x[9]      c40       1
    x[9]      c58       1
    x[9]      c61       1
    x[9]      c65       1
    x[9]      OBJ       1
    x[10]     c7        1
    x[10]     c10       1
    x[10]     c13       1
    x[10]     c15       1
    x[10]     c21       1
    x[10]     c36       1
    x[10]     c41       1
    x[10]     OBJ       1
    x[11]     c7        1
    x[11]     c11       1
    x[11]     c18       1
    x[11]     c20       1
    x[11]     c43       1
    x[11]     c52       1
    x[11]     c53       1
    x[11]     c65       1
    x[11]     OBJ       1
    x[12]     c12       1
    x[12]     c16       1
    x[12]     c19       1
    x[12]     c31       1
    x[12]     c33       1
    x[12]     c37       1
    x[12]     c43       1
    x[12]     c61       1
    x[12]     c67       1
    x[12]     c69       1
    x[12]     OBJ       1
    x[13]     c4        1
    x[13]     c9        1
    x[13]     c10       1
    x[13]     c13       1
    x[13]     c19       1
    x[13]     c27       1
    x[13]     c47       1
    x[13]     c62       1
    x[13]     c69       1
    x[13]     OBJ       1
    x[14]     c6        1
    x[14]     c7        1
    x[14]     c14       1
    x[14]     c19       1
    x[14]     c24       1
    x[14]     c27       1
    x[14]     c28       1
    x[14]     c40       1
    x[14]     c47       1
    x[14]     c60       1
    x[14]     c61       1
    x[14]     c63       1
    x[14]     OBJ       1
    x[15]     c5        1
    x[15]     c10       1
    x[15]     c15       1
    x[15]     c40       1
    x[15]     c51       1
    x[15]     c64       1
    x[15]     c66       1
    x[15]     OBJ       1
    x[16]     c12       1
    x[16]     c16       1
    x[16]     c25       1
    x[16]     c31       1
    x[16]     c50       1
    x[16]     OBJ       1
    x[17]     c17       1
    x[17]     c45       1
    x[17]     c52       1
    x[17]     c67       1
    x[17]     OBJ       1
    x[18]     c11       1
    x[18]     c18       1
    x[18]     c42       1
    x[18]     c61       1
    x[18]     c67       1
    x[18]     OBJ       1
    x[19]     c12       1
    x[19]     c13       1
    x[19]     c14       1
    x[19]     c19       1
    x[19]     c44       1
    x[19]     c66       1
    x[19]     c69       1
    x[19]     c70       1
    x[19]     OBJ       1
    x[20]     c11       1
    x[20]     c20       1
    x[20]     c31       1
    x[20]     c32       1
    x[20]     c44       1
    x[20]     c45       1
    x[20]     c56       1
    x[20]     c57       1
    x[20]     c61       1
    x[20]     c68       1
    x[20]     OBJ       1
    x[21]     c2        1
    x[21]     c3        1
    x[21]     c10       1
    x[21]     c21       1
    x[21]     c28       1
    x[21]     c59       1
    x[21]     c64       1
    x[21]     c66       1
    x[21]     OBJ       1
    x[22]     c22       1
    x[22]     c28       1
    x[22]     c35       1
    x[22]     c48       1
    x[22]     c52       1
    x[22]     c53       1
    x[22]     c60       1
    x[22]     c61       1
    x[22]     OBJ       1
    x[23]     c7        1
    x[23]     c23       1
    x[23]     c32       1
    x[23]     c41       1
    x[23]     c49       1
    x[23]     c53       1
    x[23]     OBJ       1
    x[24]     c4        1
    x[24]     c7        1
    x[24]     c9        1
    x[24]     c14       1
    x[24]     c24       1
    x[24]     c47       1
    x[24]     c48       1
    x[24]     c53       1
    x[24]     c70       1
    x[24]     OBJ       1
    x[25]     c5        1
    x[25]     c16       1
    x[25]     c25       1
    x[25]     c31       1
    x[25]     c44       1
    x[25]     c45       1
    x[25]     c47       1
    x[25]     c55       1
    x[25]     OBJ       1
    x[26]     c1        1
    x[26]     c26       1
    x[26]     c29       1
    x[26]     c31       1
    x[26]     c38       1
    x[26]     c44       1
    x[26]     c54       1
    x[26]     c58       1
    x[26]     c61       1
    x[26]     OBJ       1
    x[27]     c13       1
    x[27]     c14       1
    x[27]     c27       1
    x[27]     c33       1
    x[27]     c34       1
    x[27]     c35       1
    x[27]     c43       1
    x[27]     c47       1
    x[27]     c60       1
    x[27]     OBJ       1
    x[28]     c6        1
    x[28]     c8        1
    x[28]     c14       1
    x[28]     c21       1
    x[28]     c22       1
    x[28]     c28       1
    x[28]     c31       1
    x[28]     c41       1
    x[28]     c57       1
    x[28]     c58       1
    x[28]     c59       1
    x[28]     OBJ       1
    x[29]     c1        1
    x[29]     c26       1
    x[29]     c29       1
    x[29]     c53       1
    x[29]     c58       1
    x[29]     c62       1
    x[29]     OBJ       1
    x[30]     c5        1
    x[30]     c6        1
    x[30]     c30       1
    x[30]     c36       1
    x[30]     c42       1
    x[30]     c67       1
    x[30]     OBJ       1
    x[31]     c9        1
    x[31]     c12       1
    x[31]     c16       1
    x[31]     c20       1
    x[31]     c25       1
    x[31]     c26       1
    x[31]     c28       1
    x[31]     c31       1
    x[31]     c40       1
    x[31]     c48       1
    x[31]     c68       1
    x[31]     OBJ       1
    x[32]     c3        1
    x[32]     c20       1
    x[32]     c23       1
    x[32]     c32       1
    x[32]     c35       1
    x[32]     c43       1
    x[32]     OBJ       1
    x[33]     c7        1
    x[33]     c12       1
    x[33]     c27       1
    x[33]     c33       1
    x[33]     c34       1
    x[33]     c37       1
    x[33]     c52       1
    x[33]     c58       1
    x[33]     OBJ       1
    x[34]     c8        1
    x[34]     c27       1
    x[34]     c33       1
    x[34]     c34       1
    x[34]     c58       1
    x[34]     OBJ       1
    x[35]     c6        1
    x[35]     c9        1
    x[35]     c22       1
    x[35]     c27       1
    x[35]     c32       1
    x[35]     c35       1
    x[35]     c38       1
    x[35]     c64       1
    x[35]     OBJ       1
    x[36]     c2        1
    x[36]     c10       1
    x[36]     c30       1
    x[36]     c36       1
    x[36]     c51       1
    x[36]     c52       1
    x[36]     c53       1
    x[36]     c56       1
    x[36]     OBJ       1
    x[37]     c12       1
    x[37]     c33       1
    x[37]     c37       1
    x[37]     c41       1
    x[37]     OBJ       1
    x[38]     c2        1
    x[38]     c6        1
    x[38]     c26       1
    x[38]     c35       1
    x[38]     c38       1
    x[38]     c41       1
    x[38]     c50       1
    x[38]     c61       1
    x[38]     OBJ       1
    x[39]     c39       1
    x[39]     c42       1
    x[39]     c53       1
    x[39]     OBJ       1
    x[40]     c9        1
    x[40]     c14       1
    x[40]     c15       1
    x[40]     c31       1
    x[40]     c40       1
    x[40]     c44       1
    x[40]     OBJ       1
    x[41]     c3        1
    x[41]     c5        1
    x[41]     c8        1
    x[41]     c10       1
    x[41]     c23       1
    x[41]     c28       1
    x[41]     c37       1
    x[41]     c38       1
    x[41]     c41       1
    x[41]     c52       1
    x[41]     c61       1
    x[41]     OBJ       1
    x[42]     c2        1
    x[42]     c3        1
    x[42]     c4        1
    x[42]     c18       1
    x[42]     c30       1
    x[42]     c39       1
    x[42]     c42       1
    x[42]     c48       1
    x[42]     c55       1
    x[42]     c70       1
    x[42]     OBJ       1
    x[43]     c5        1
    x[43]     c11       1
    x[43]     c12       1
    x[43]     c27       1
    x[43]     c32       1
    x[43]     c43       1
    x[43]     c54       1
    x[43]     c57       1
    x[43]     c60       1
    x[43]     c70       1
    x[43]     OBJ       1
    x[44]     c4        1
    x[44]     c5        1
    x[44]     c19       1
    x[44]     c20       1
    x[44]     c25       1
    x[44]     c26       1
    x[44]     c40       1
    x[44]     c44       1
    x[44]     c51       1
    x[44]     c60       1
    x[44]     c70       1
    x[44]     OBJ       1
    x[45]     c4        1
    x[45]     c17       1
    x[45]     c20       1
    x[45]     c25       1
    x[45]     c45       1
    x[45]     c49       1
    x[45]     c56       1
    x[45]     OBJ       1
    x[46]     c46       1
    x[46]     c49       1
    x[46]     OBJ       1
    x[47]     c13       1
    x[47]     c14       1
    x[47]     c24       1
    x[47]     c25       1
    x[47]     c27       1
    x[47]     c47       1
    x[47]     c58       1
    x[47]     c59       1
    x[47]     c65       1
    x[47]     c66       1
    x[47]     OBJ       1
    x[48]     c2        1
    x[48]     c22       1
    x[48]     c24       1
    x[48]     c31       1
    x[48]     c42       1
    x[48]     c48       1
    x[48]     c52       1
    x[48]     c66       1
    x[48]     OBJ       1
    x[49]     c23       1
    x[49]     c45       1
    x[49]     c46       1
    x[49]     c49       1
    x[49]     OBJ       1
    x[50]     c16       1
    x[50]     c38       1
    x[50]     c50       1
    x[50]     c57       1
    x[50]     c60       1
    x[50]     OBJ       1
    x[51]     c15       1
    x[51]     c36       1
    x[51]     c44       1
    x[51]     c51       1
    x[51]     OBJ       1
    x[52]     c5        1
    x[52]     c11       1
    x[52]     c17       1
    x[52]     c22       1
    x[52]     c33       1
    x[52]     c36       1
    x[52]     c41       1
    x[52]     c48       1
    x[52]     c52       1
    x[52]     c64       1
    x[52]     c68       1
    x[52]     OBJ       1
    x[53]     c5        1
    x[53]     c11       1
    x[53]     c22       1
    x[53]     c23       1
    x[53]     c24       1
    x[53]     c29       1
    x[53]     c36       1
    x[53]     c39       1
    x[53]     c53       1
    x[53]     c59       1
    x[53]     c60       1
    x[53]     c68       1
    x[53]     OBJ       1
    x[54]     c26       1
    x[54]     c43       1
    x[54]     c54       1
    x[54]     c62       1
    x[54]     OBJ       1
    x[55]     c6        1
    x[55]     c25       1
    x[55]     c42       1
    x[55]     c55       1
    x[55]     c60       1
    x[55]     c61       1
    x[55]     OBJ       1
    x[56]     c6        1
    x[56]     c20       1
    x[56]     c36       1
    x[56]     c45       1
    x[56]     c56       1
    x[56]     c62       1
    x[56]     OBJ       1
    x[57]     c6        1
    x[57]     c20       1
    x[57]     c28       1
    x[57]     c43       1
    x[57]     c50       1
    x[57]     c57       1
    x[57]     c66       1
    x[57]     c68       1
    x[57]     c69       1
    x[57]     OBJ       1
    x[58]     c1        1
    x[58]     c2        1
    x[58]     c9        1
    x[58]     c26       1
    x[58]     c28       1
    x[58]     c29       1
    x[58]     c33       1
    x[58]     c34       1
    x[58]     c47       1
    x[58]     c58       1
    x[58]     c62       1
    x[58]     OBJ       1
    x[59]     c3        1
    x[59]     c8        1
    x[59]     c21       1
    x[59]     c28       1
    x[59]     c47       1
    x[59]     c53       1
    x[59]     c59       1
    x[59]     OBJ       1
    x[60]     c7        1
    x[60]     c14       1
    x[60]     c22       1
    x[60]     c27       1
    x[60]     c43       1
    x[60]     c44       1
    x[60]     c50       1
    x[60]     c53       1
    x[60]     c55       1
    x[60]     c60       1
    x[60]     c70       1
    x[60]     OBJ       1
    x[61]     c9        1
    x[61]     c12       1
    x[61]     c14       1
    x[61]     c18       1
    x[61]     c20       1
    x[61]     c22       1
    x[61]     c26       1
    x[61]     c38       1
    x[61]     c41       1
    x[61]     c55       1
    x[61]     c61       1
    x[61]     c65       1
    x[61]     OBJ       1
    x[62]     c13       1
    x[62]     c29       1
    x[62]     c54       1
    x[62]     c56       1
    x[62]     c58       1
    x[62]     c62       1
    x[62]     c69       1
    x[62]     OBJ       1
    x[63]     c4        1
    x[63]     c14       1
    x[63]     c63       1
    x[63]     c64       1
    x[63]     c66       1
    x[63]     c67       1
    x[63]     c68       1
    x[63]     OBJ       1
    x[64]     c5        1
    x[64]     c15       1
    x[64]     c21       1
    x[64]     c35       1
    x[64]     c52       1
    x[64]     c63       1
    x[64]     c64       1
    x[64]     OBJ       1
    x[65]     c7        1
    x[65]     c9        1
    x[65]     c11       1
    x[65]     c47       1
    x[65]     c61       1
    x[65]     c65       1
    x[65]     c69       1
    x[65]     OBJ       1
    x[66]     c8        1
    x[66]     c15       1
    x[66]     c19       1
    x[66]     c21       1
    x[66]     c47       1
    x[66]     c48       1
    x[66]     c57       1
    x[66]     c63       1
    x[66]     c66       1
    x[66]     c69       1
    x[66]     OBJ       1
    x[67]     c4        1
    x[67]     c8        1
    x[67]     c12       1
    x[67]     c17       1
    x[67]     c18       1
    x[67]     c30       1
    x[67]     c63       1
    x[67]     c67       1
    x[67]     c70       1
    x[67]     OBJ       1
    x[68]     c6        1
    x[68]     c20       1
    x[68]     c31       1
    x[68]     c52       1
    x[68]     c53       1
    x[68]     c57       1
    x[68]     c63       1
    x[68]     c68       1
    x[68]     OBJ       1
    x[69]     c1        1
    x[69]     c12       1
    x[69]     c13       1
    x[69]     c19       1
    x[69]     c57       1
    x[69]     c62       1
    x[69]     c65       1
    x[69]     c66       1
    x[69]     c69       1
    x[69]     OBJ       1
    x[70]     c8        1
    x[70]     c19       1
    x[70]     c24       1
    x[70]     c42       1
    x[70]     c43       1
    x[70]     c44       1
    x[70]     c60       1
    x[70]     c67       1
    x[70]     c70       1
    x[70]     OBJ       1
    MARKER    'MARKER'                 'INTEND'
RHS
    rhs       c1        1
    rhs       c2        1
    rhs       c3        1
    rhs       c4        1
    rhs       c5        1
    rhs       c6        1
    rhs       c7        1
    rhs       c8        1
    rhs       c9        1
    rhs       c10       1
    rhs       c11       1
    rhs       c12       1
    rhs       c13       1
    rhs       c14       1
    rhs       c15       1
    rhs       c16       1
    rhs       c17       1
    rhs       c18       1
    rhs       c19       1
    rhs       c20       1
    rhs       c21       1
    rhs       c22       1
    rhs       c23       1
    rhs       c24       1
    rhs       c25       1
    rhs       c26       1
    rhs       c27       1
    rhs       c28       1
    rhs       c29       1
    rhs       c30       1
    rhs       c31       1
    rhs       c32       1
    rhs       c33       1
    rhs       c34       1
    rhs       c35       1
    rhs       c36       1
    rhs       c37       1
    rhs       c38       1
    rhs       c39       1
    rhs       c40       1
    rhs       c41       1
    rhs       c42       1
    rhs       c43       1
    rhs       c44       1
    rhs       c45       1
    rhs       c46       1
    rhs       c47       1
    rhs       c48       1
    rhs       c49       1
    rhs       c50       1
    rhs       c51       1
    rhs       c52       1
    rhs       c53       1
    rhs       c54       1
    rhs       c55       1
    rhs       c56       1
    rhs       c57       1
    rhs       c58       1
    rhs       c59       1
    rhs       c60       1
    rhs       c61       1
    rhs       c62       1
    rhs       c63       1
    rhs       c64       1
    rhs       c65       1
    rhs       c66       1
    rhs       c67       1
    rhs       c68       1
    rhs       c69       1
    rhs       c70       1
RANGES
BOUNDS
 BV bounds    x[1]
 BV bounds    x[2]
 BV bounds    x[3]
 BV bounds    x[4]
 BV bounds    x[5]
 BV bounds    x[6]
 BV bounds    x[7]
 BV bounds    x[8]
 BV bounds    x[9]
 BV bounds    x[10]
 BV bounds    x[11]
 BV bounds    x[12]
 BV bounds    x[13]
 BV bounds    x[14]
 BV bounds    x[15]
 BV bounds    x[16]
 BV bounds    x[17]
 BV bounds    x[18]
 BV bounds    x[19]
 BV bounds    x[20]
 BV bounds    x[21]
 BV bounds    x[22]
 BV bounds    x[23]
 BV bounds    x[24]
 BV bounds    x[25]
 BV bounds    x[26]
 BV bounds    x[27]
 BV bounds    x[28]
 BV bounds    x[29]
 BV bounds    x[30]
 BV bounds    x[31]
 BV bounds    x[32]
 BV bounds    x[33]
 BV bounds    x[34]
 BV bounds    x[35]
 BV bounds    x[36]
 BV bounds    x[37]
 BV bounds    x[38]
 BV bounds    x[39]
 BV bounds    x[40]
 BV bounds    x[41]
 BV bounds    x[42]
 BV bounds    x[43]
 BV bounds    x[44]
 BV bounds    x[45]
 BV bounds    x[46]
 BV bounds    x[47]
 BV bounds    x[48]
 BV bounds    x[49]
 BV bounds    x[50]
 BV bounds    x[51]
 BV bounds    x[52]
 BV bounds    x[53]
 BV bounds    x[54]
 BV bounds    x[55]
 BV bounds    x[56]
 BV bounds    x[57]
 BV bounds    x[58]
 BV bounds    x[59]
 BV bounds    x[60]
 BV bounds    x[61]
 BV bounds    x[62]
 BV bounds    x[63]
 BV bounds    x[64]
 BV bounds    x[65]
 BV bounds    x[66]
 BV bounds    x[67]
 BV bounds    x[68]
 BV bounds    x[69]
 BV bounds    x[70]
ENDATA
